100
2452
7
23
81
50
12
15
73
93
0 1
0 2
0 4
0 5
0 7
0 9
0 10
0 11
0 16
0 17
0 19
0 23
0 24
0 26
0 27
0 28
0 29
0 30
0 31
0 32
0 35
0 38
0 39
0 44
0 47
0 49
0 50
0 52
0 54
0 57
0 58
0 60
0 61
0 64
0 65
0 66
0 67
0 68
0 70
0 71
0 73
0 76
0 80
0 81
0 84
0 87
0 90
0 91
0 94
0 98
0 99
1 2
1 3
1 6
1 8
1 12
1 13
1 14
1 15
1 16
1 18
1 19
1 21
1 22
1 23
1 24
1 26
1 28
1 31
1 34
1 36
1 37
1 38
1 40
1 43
1 44
1 46
1 48
1 49
1 51
1 52
1 53
1 57
1 59
1 61
1 63
1 70
1 71
1 72
1 73
1 78
1 80
1 89
1 91
1 92
1 97
2 7
2 9
2 11
2 12
2 15
2 18
2 20
2 22
2 24
2 25
2 28
2 29
2 34
2 35
2 37
2 39
2 40
2 41
2 43
2 48
2 50
2 55
2 56
2 59
2 61
2 62
2 65
2 66
2 69
2 70
2 71
2 74
2 75
2 78
2 79
2 80
2 84
2 85
2 86
2 87
2 89
2 91
2 92
2 93
2 94
2 96
2 99
3 4
3 5
3 9
3 10
3 14
3 16
3 18
3 19
3 21
3 22
3 24
3 25
3 29
3 33
3 37
3 40
3 42
3 43
3 45
3 47
3 57
3 60
3 67
3 69
3 71
3 74
3 75
3 76
3 78
3 82
3 83
3 84
3 88
3 90
3 91
3 93
3 94
3 95
3 96
4 6
4 7
4 8
4 9
4 10
4 11
4 12
4 14
4 15
4 16
4 17
4 20
4 21
4 22
4 23
4 26
4 28
4 30
4 31
4 34
4 36
4 37
4 39
4 45
4 46
4 48
4 49
4 51
4 52
4 53
4 54
4 55
4 57
4 59
4 64
4 67
4 73
4 74
4 77
4 84
4 85
4 87
4 88
4 89
4 90
4 93
4 94
4 95
4 96
4 97
5 6
5 8
5 9
5 10
5 13
5 16
5 21
5 22
5 23
5 25
5 30
5 33
5 34
5 36
5 38
5 39
5 40
5 41
5 45
5 49
5 52
5 57
5 61
5 62
5 66
5 67
5 69
5 71
5 72
5 75
5 76
5 77
5 79
5 83
5 84
5 87
5 92
5 93
5 94
5 96
5 99
6 7
6 10
6 11
6 15
6 16
6 18
6 22
6 23
6 26
6 31
6 32
6 35
6 38
6 39
6 43
6 45
6 47
6 49
6 52
6 53
6 54
6 56
6 57
6 58
6 59
6 60
6 62
6 63
6 65
6 68
6 71
6 74
6 75
6 76
6 77
6 78
6 79
6 80
6 82
6 83
6 87
6 89
6 91
6 92
6 93
6 94
6 95
6 98
6 99
7 8
7 11
7 13
7 14
7 16
7 19
7 22
7 23
7 25
7 30
7 31
7 32
7 33
7 34
7 35
7 36
7 37
7 39
7 42
7 43
7 44
7 46
7 50
7 53
7 54
7 57
7 58
7 59
7 62
7 63
7 65
7 66
7 69
7 70
7 71
7 72
7 73
7 74
7 75
7 77
7 78
7 79
7 80
7 83
7 84
7 85
7 86
7 87
7 88
7 89
7 90
7 94
7 97
8 9
8 10
8 11
8 15
8 16
8 17
8 18
8 20
8 21
8 22
8 23
8 32
8 33
8 37
8 38
8 40
8 42
8 43
8 44
8 45
8 52
8 53
8 54
8 56
8 58
8 64
8 66
8 67
8 68
8 70
8 71
8 73
8 74
8 76
8 79
8 81
8 82
8 83
8 84
8 86
8 87
8 88
8 91
8 92
8 93
8 94
8 96
8 97
9 12
9 13
9 15
9 16
9 19
9 21
9 24
9 30
9 32
9 33
9 37
9 38
9 43
9 45
9 50
9 51
9 52
9 55
9 56
9 57
9 58
9 59
9 61
9 62
9 65
9 69
9 70
9 72
9 73
9 74
9 76
9 77
9 78
9 81
9 82
9 83
9 86
9 89
9 90
9 91
9 96
9 98
9 99
10 13
10 14
10 15
10 18
10 19
10 22
10 24
10 25
10 27
10 28
10 29
10 30
10 31
10 33
10 34
10 35
10 36
10 37
10 38
10 39
10 40
10 42
10 43
10 49
10 51
10 53
10 54
10 57
10 59
10 64
10 65
10 66
10 67
10 68
10 69
10 72
10 73
10 75
10 76
10 77
10 78
10 79
10 80
10 84
10 85
10 87
10 93
10 94
10 96
10 97
10 99
11 12
11 13
11 15
11 16
11 19
11 21
11 22
11 23
11 24
11 26
11 27
11 28
11 29
11 34
11 35
11 40
11 43
11 48
11 49
11 52
11 53
11 54
11 59
11 60
11 61
11 63
11 64
11 67
11 69
11 70
11 72
11 75
11 76
11 78
11 81
11 87
11 89
11 93
11 94
11 95
11 96
11 98
11 99
12 13
12 14
12 16
12 17
12 18
12 19
12 20
12 21
12 22
12 23
12 25
12 26
12 28
12 29
12 30
12 31
12 32
12 35
12 36
12 38
12 45
12 48
12 52
12 53
12 54
12 55
12 56
12 57
12 59
12 60
12 62
12 64
12 66
12 67
12 68
12 70
12 71
12 72
12 73
12 74
12 75
12 78
12 79
12 81
12 85
12 86
12 87
12 88
12 90
12 93
12 96
12 97
12 98
12 99
13 14
13 15
13 17
13 18
13 22
13 23
13 26
13 27
13 28
13 29
13 30
13 31
13 32
13 34
13 35
13 36
13 37
13 39
13 40
13 44
13 45
13 46
13 50
13 52
13 53
13 54
13 59
13 61
13 65
13 66
13 67
13 69
13 72
13 73
13 75
13 77
13 79
13 81
13 83
13 84
13 86
13 87
13 90
13 92
13 93
13 95
13 96
13 97
13 99
14 16
14 21
14 27
14 28
14 31
14 34
14 35
14 36
14 37
14 39
14 40
14 46
14 48
14 49
14 51
14 52
14 59
14 61
14 63
14 65
14 66
14 67
14 70
14 71
14 72
14 73
14 74
14 78
14 80
14 83
14 88
14 91
14 92
14 93
14 94
14 97
14 98
15 18
15 20
15 21
15 23
15 26
15 30
15 31
15 33
15 36
15 37
15 38
15 39
15 40
15 42
15 43
15 45
15 46
15 48
15 51
15 53
15 54
15 55
15 59
15 60
15 64
15 65
15 67
15 70
15 71
15 73
15 79
15 83
15 84
15 85
15 87
15 88
15 91
15 92
15 93
15 94
15 96
15 98
16 17
16 19
16 22
16 25
16 28
16 30
16 31
16 32
16 33
16 34
16 36
16 38
16 39
16 41
16 44
16 47
16 50
16 51
16 52
16 53
16 55
16 56
16 57
16 59
16 65
16 67
16 68
16 70
16 71
16 72
16 73
16 74
16 75
16 82
16 85
16 88
16 90
16 91
16 92
16 94
16 97
16 98
16 99
17 19
17 21
17 27
17 29
17 31
17 32
17 38
17 39
17 41
17 42
17 44
17 46
17 53
17 55
17 56
17 57
17 59
17 60
17 62
17 65
17 67
17 72
17 73
17 74
17 75
17 78
17 79
17 80
17 84
17 85
17 86
17 90
17 91
17 94
17 95
17 96
17 97
18 21
18 23
18 25
18 27
18 29
18 30
18 31
18 32
18 34
18 36
18 37
18 38
18 43
18 47
18 48
18 49
18 55
18 59
18 66
18 69
18 70
18 72
18 76
18 78
18 79
18 81
18 82
18 85
18 86
18 87
18 88
18 91
18 92
18 93
18 97
19 21
19 23
19 25
19 27
19 31
19 32
19 33
19 34
19 35
19 36
19 38
19 41
19 48
19 50
19 51
19 52
19 56
19 60
19 61
19 62
19 63
19 64
19 68
19 73
19 74
19 75
19 78
19 79
19 82
19 83
19 86
19 93
19 96
19 97
19 98
19 99
20 21
20 23
20 24
20 27
20 29
20 32
20 38
20 40
20 41
20 42
20 44
20 45
20 49
20 50
20 51
20 57
20 58
20 60
20 61
20 62
20 64
20 65
20 68
20 69
20 70
20 73
20 74
20 75
20 76
20 78
20 80
20 81
20 82
20 85
20 89
20 91
20 93
20 96
20 97
20 98
20 99
21 23
21 24
21 26
21 28
21 30
21 31
21 34
21 35
21 36
21 37
21 38
21 42
21 46
21 48
21 49
21 51
21 52
21 56
21 57
21 58
21 60
21 61
21 63
21 64
21 65
21 67
21 70
21 73
21 75
21 76
21 77
21 81
21 83
21 85
21 87
21 93
21 94
21 95
21 98
21 99
22 23
22 26
22 27
22 28
22 29
22 32
22 34
22 37
22 38
22 40
22 41
22 44
22 45
22 46
22 47
22 48
22 51
22 53
22 54
22 56
22 58
22 62
22 65
22 66
22 68
22 70
22 74
22 77
22 78
22 81
22 82
22 83
22 86
22 87
22 99
23 26
23 30
23 31
23 32
23 33
23 39
23 40
23 41
23 44
23 46
23 47
23 48
23 49
23 50
23 51
23 58
23 60
23 62
23 63
23 64
23 67
23 70
23 72
23 76
23 81
23 82
23 84
23 86
23 88
23 92
23 93
23 96
23 98
24 25
24 31
24 35
24 37
24 39
24 40
24 44
24 50
24 51
24 53
24 54
24 62
24 63
24 64
24 66
24 67
24 68
24 71
24 74
24 75
24 78
24 79
24 82
24 83
24 84
24 86
24 88
24 95
24 98
25 26
25 29
25 30
25 31
25 32
25 34
25 37
25 39
25 40
25 43
25 48
25 55
25 56
25 58
25 60
25 64
25 66
25 67
25 71
25 74
25 80
25 86
25 87
25 92
25 94
26 33
26 34
26 38
26 39
26 40
26 42
26 43
26 44
26 46
26 47
26 50
26 51
26 52
26 53
26 54
26 55
26 57
26 58
26 60
26 64
26 65
26 66
26 70
26 71
26 72
26 76
26 80
26 82
26 87
26 88
26 89
26 92
26 93
26 95
26 96
26 97
26 99
27 31
27 34
27 36
27 37
27 47
27 49
27 50
27 54
27 58
27 60
27 65
27 71
27 73
27 74
27 76
27 78
27 81
27 84
27 87
27 89
27 93
27 94
27 95
27 98
28 29
28 31
28 37
28 38
28 40
28 44
28 45
28 46
28 47
28 50
28 52
28 55
28 56
28 61
28 62
28 65
28 67
28 69
28 71
28 72
28 73
28 75
28 78
28 79
28 82
28 84
28 90
28 91
28 93
28 94
28 95
28 96
28 97
28 99
29 31
29 32
29 33
29 39
29 43
29 45
29 46
29 47
29 52
29 53
29 54
29 57
29 61
29 64
29 65
29 66
29 67
29 68
29 70
29 72
29 73
29 74
29 75
29 76
29 79
29 80
29 82
29 83
29 84
29 90
29 94
29 95
29 96
29 98
30 32
30 37
30 40
30 45
30 46
30 48
30 49
30 50
30 51
30 53
30 54
30 56
30 57
30 58
30 59
30 62
30 64
30 66
30 67
30 70
30 73
30 74
30 75
30 76
30 78
30 79
30 81
30 82
30 83
30 84
30 87
30 88
30 89
30 90
30 93
30 94
30 95
30 98
30 99
31 32
31 33
31 36
31 40
31 41
31 43
31 48
31 49
31 52
31 53
31 58
31 59
31 61
31 63
31 65
31 66
31 68
31 69
31 70
31 71
31 72
31 74
31 75
31 76
31 80
31 83
31 86
31 89
31 92
31 94
31 97
31 99
32 35
32 36
32 37
32 39
32 46
32 47
32 48
32 49
32 50
32 51
32 60
32 63
32 66
32 67
32 68
32 71
32 74
32 76
32 79
32 80
32 81
32 83
32 84
32 85
32 86
32 87
32 93
32 94
32 96
33 34
33 38
33 40
33 42
33 44
33 45
33 47
33 48
33 49
33 51
33 52
33 54
33 56
33 57
33 58
33 60
33 66
33 68
33 69
33 71
33 74
33 75
33 78
33 79
33 83
33 84
33 86
33 88
33 90
33 91
33 93
33 95
33 96
33 99
34 35
34 38
34 40
34 43
34 45
34 46
34 48
34 51
34 53
34 54
34 55
34 58
34 62
34 63
34 65
34 69
34 73
34 74
34 76
34 77
34 78
34 81
34 88
34 89
34 91
34 92
34 94
34 96
34 97
34 98
34 99
35 36
35 37
35 39
35 40
35 42
35 43
35 44
35 46
35 47
35 49
35 50
35 51
35 52
35 53
35 54
35 56
35 58
35 61
35 67
35 68
35 69
35 73
35 79
35 80
35 81
35 82
35 88
35 89
35 91
35 95
35 96
35 98
36 39
36 41
36 42
36 43
36 44
36 45
36 46
36 47
36 51
36 53
36 54
36 56
36 57
36 58
36 59
36 61
36 63
36 65
36 67
36 69
36 70
36 71
36 72
36 74
36 76
36 77
36 78
36 80
36 81
36 82
36 83
36 84
36 87
36 88
36 90
36 91
36 94
36 96
36 97
37 41
37 42
37 43
37 46
37 48
37 49
37 51
37 53
37 54
37 55
37 58
37 60
37 61
37 62
37 64
37 68
37 69
37 70
37 73
37 75
37 76
37 77
37 78
37 79
37 80
37 82
37 83
37 84
37 86
37 91
37 92
37 95
37 96
38 39
38 41
38 42
38 44
38 45
38 48
38 51
38 52
38 54
38 55
38 56
38 61
38 63
38 66
38 68
38 70
38 75
38 77
38 79
38 80
38 81
38 82
38 83
38 84
38 85
38 86
38 87
38 88
38 89
38 91
38 93
38 96
38 97
38 99
39 41
39 42
39 43
39 44
39 47
39 48
39 49
39 52
39 54
39 56
39 62
39 63
39 64
39 65
39 67
39 68
39 69
39 71
39 72
39 73
39 75
39 76
39 77
39 80
39 82
39 84
39 86
39 89
39 93
39 94
39 95
39 96
39 97
39 99
40 41
40 42
40 44
40 45
40 49
40 51
40 52
40 53
40 57
40 59
40 62
40 67
40 68
40 69
40 71
40 72
40 75
40 78
40 86
40 88
40 89
40 90
40 98
40 99
41 44
41 45
41 49
41 51
41 52
41 54
41 55
41 63
41 64
41 67
41 71
41 74
41 75
41 76
41 77
41 79
41 80
41 81
41 83
41 84
41 88
41 89
41 90
41 91
41 92
41 93
41 94
41 95
41 97
41 98
41 99
42 45
42 47
42 48
42 49
42 50
42 52
42 55
42 56
42 57
42 58
42 60
42 61
42 63
42 64
42 65
42 67
42 68
42 70
42 73
42 74
42 75
42 77
42 80
42 82
42 83
42 84
42 86
42 87
42 89
42 90
42 92
42 93
42 95
42 99
43 44
43 48
43 52
43 53
43 55
43 57
43 59
43 62
43 63
43 65
43 71
43 72
43 73
43 77
43 78
43 79
43 80
43 84
43 85
43 86
43 87
43 89
43 92
43 93
43 94
43 95
43 96
43 97
44 45
44 47
44 49
44 50
44 52
44 55
44 57
44 58
44 60
44 62
44 63
44 64
44 67
44 70
44 73
44 74
44 75
44 76
44 78
44 79
44 80
44 86
44 87
44 89
44 91
44 93
44 94
44 97
44 98
45 47
45 48
45 49
45 52
45 53
45 54
45 55
45 58
45 59
45 60
45 62
45 64
45 65
45 66
45 67
45 69
45 70
45 73
45 74
45 75
45 76
45 78
45 79
45 81
45 84
45 86
45 90
45 93
45 97
45 98
46 53
46 54
46 55
46 56
46 65
46 66
46 70
46 72
46 73
46 74
46 77
46 80
46 83
46 84
46 86
46 87
46 90
46 91
46 93
46 94
46 96
46 99
47 48
47 50
47 51
47 52
47 59
47 60
47 62
47 64
47 65
47 72
47 74
47 75
47 76
47 77
47 81
47 83
47 87
47 88
47 89
47 90
47 91
47 93
47 94
47 98
47 99
48 49
48 51
48 56
48 57
48 59
48 61
48 63
48 64
48 65
48 66
48 67
48 69
48 70
48 72
48 73
48 74
48 75
48 77
48 78
48 79
48 80
48 81
48 82
48 83
48 84
48 86
48 87
48 88
48 89
48 91
48 94
49 51
49 52
49 53
49 59
49 60
49 61
49 62
49 65
49 67
49 68
49 69
49 70
49 71
49 73
49 74
49 77
49 78
49 82
49 85
49 86
49 87
49 91
49 92
49 93
49 94
49 98
50 57
50 59
50 60
50 61
50 63
50 65
50 67
50 72
50 74
50 75
50 76
50 77
50 81
50 87
50 88
50 90
50 91
50 92
50 96
50 97
50 99
51 54
51 57
51 60
51 63
51 65
51 67
51 68
51 69
51 71
51 72
51 77
51 79
51 81
51 82
51 84
51 86
51 91
51 93
51 94
51 95
51 97
51 98
52 55
52 57
52 58
52 59
52 60
52 62
52 63
52 64
52 67
52 68
52 69
52 72
52 74
52 75
52 78
52 81
52 83
52 84
52 85
52 86
52 87
52 88
52 89
52 91
52 94
52 99
53 58
53 59
53 60
53 64
53 65
53 70
53 71
53 75
53 76
53 78
53 79
53 80
53 83
53 86
53 89
53 90
53 91
53 93
53 94
53 96
53 98
53 99
54 58
54 59
54 60
54 63
54 65
54 67
54 68
54 70
54 74
54 75
54 78
54 79
54 81
54 82
54 83
54 84
54 85
54 86
54 87
54 90
54 91
54 93
54 94
54 98
55 56
55 58
55 61
55 62
55 63
55 66
55 67
55 68
55 70
55 71
55 73
55 75
55 78
55 80
55 81
55 87
55 88
55 92
56 57
56 60
56 61
56 62
56 65
56 66
56 70
56 71
56 72
56 73
56 74
56 75
56 77
56 78
56 81
56 82
56 83
56 85
56 89
56 90
56 91
56 97
56 99
57 65
57 66
57 68
57 69
57 70
57 74
57 75
57 76
57 77
57 79
57 80
57 82
57 87
57 91
57 92
57 94
57 96
57 97
57 98
57 99
58 59
58 63
58 65
58 67
58 68
58 69
58 73
58 75
58 76
58 80
58 81
58 83
58 85
58 88
58 90
58 94
58 95
58 98
59 60
59 62
59 64
59 72
59 74
59 79
59 81
59 82
59 83
59 84
59 86
59 87
59 88
59 89
59 90
59 92
59 97
59 98
59 99
60 61
60 62
60 64
60 67
60 68
60 72
60 73
60 74
60 75
60 77
60 78
60 79
60 85
60 88
60 90
60 92
60 93
60 94
60 95
60 96
61 63
61 67
61 70
61 71
61 74
61 75
61 76
61 78
61 79
61 81
61 82
61 86
61 87
61 88
61 89
61 90
61 92
61 93
61 95
62 63
62 64
62 66
62 68
62 69
62 72
62 73
62 74
62 77
62 80
62 81
62 83
62 84
62 85
62 86
62 91
62 92
62 93
62 96
62 99
63 69
63 70
63 71
63 72
63 73
63 74
63 77
63 78
63 79
63 80
63 81
63 82
63 85
63 87
63 88
63 89
63 90
63 91
63 93
63 96
64 66
64 67
64 72
64 75
64 79
64 80
64 81
64 82
64 83
64 89
64 90
64 93
64 94
64 95
64 97
64 98
65 69
65 76
65 77
65 78
65 79
65 80
65 81
65 83
65 85
65 86
65 89
65 92
65 95
65 96
65 97
65 98
66 67
66 68
66 69
66 70
66 71
66 72
66 74
66 79
66 80
66 81
66 82
66 84
66 85
66 86
66 87
66 88
66 89
66 90
66 92
67 68
67 70
67 73
67 76
67 77
67 78
67 82
67 86
67 87
67 88
67 92
67 94
67 96
67 98
68 73
68 76
68 77
68 79
68 86
68 87
68 89
68 91
68 93
68 95
68 98
69 72
69 74
69 81
69 82
69 88
69 90
69 92
69 93
69 95
69 99
70 71
70 72
70 73
70 74
70 76
70 77
70 79
70 81
70 86
70 90
70 93
70 96
71 72
71 75
71 77
71 78
71 80
71 83
71 86
71 87
71 90
71 92
71 96
71 98
72 73
72 75
72 76
72 77
72 79
72 80
72 81
72 82
72 83
72 84
72 86
72 87
72 88
72 89
72 90
72 93
72 94
72 95
72 96
72 97
72 98
72 99
73 74
73 76
73 77
73 79
73 82
73 87
73 88
73 89
73 90
73 92
73 93
73 94
73 97
73 99
74 77
74 79
74 80
74 84
74 85
74 86
74 87
74 91
74 92
74 94
74 95
74 96
74 97
74 98
75 76
75 79
75 80
75 81
75 82
75 86
75 89
75 90
75 91
75 95
75 97
75 98
76 79
76 80
76 81
76 82
76 83
76 85
76 88
76 91
76 92
76 93
76 94
76 95
76 96
76 99
77 78
77 80
77 81
77 85
77 88
77 89
77 90
77 91
77 92
77 93
77 96
78 79
78 83
78 84
78 86
78 87
78 89
78 91
78 93
78 96
78 97
79 80
79 81
79 82
79 83
79 85
79 89
79 96
79 97
79 98
80 82
80 85
80 86
80 89
80 91
80 93
80 94
80 95
80 96
80 98
81 85
81 88
81 91
81 92
81 93
81 95
81 96
81 99
82 83
82 85
82 86
82 88
82 89
82 90
82 91
82 92
82 93
82 99
83 85
83 89
83 90
83 92
83 94
83 97
83 99
84 85
84 86
84 87
84 88
84 89
84 92
84 95
84 96
84 97
84 98
85 86
85 87
85 89
85 90
85 94
85 96
85 99
86 87
86 89
86 90
86 92
86 93
86 94
86 95
86 98
87 88
87 90
87 92
87 96
88 89
88 90
88 91
88 96
88 99
89 90
89 93
89 94
89 96
89 97
89 98
89 99
90 91
90 92
90 93
90 95
90 98
90 99
91 92
91 93
91 95
91 96
91 97
91 98
92 94
92 95
92 96
92 97
92 99
93 94
93 96
93 98
94 96
94 97
95 98
96 98
97 98
97 99
15 97 33 36 53 95 82 72 80 76 6 81 94 73 20
21 32 48 59 17 83 11 71 68 52 10 30 12 14 84
7 65 70 62 19 47 93 16 40 78 60 43 2 98 96
75 4 57 3 8 50 0 87 27 85 77 13 89 64 56
42 66 74 54 69 37 25 26 22 88 49 45 5 44 23
29 55 9 61 41 51 67 39 31 99 18 79 34 24 90
46 1 58 63 28 35 86 92 38 91
